instance_name = "long_n0323_r040_640";
instance_group = "long";
rsi_start = 0;
rsi_end = 838;
rsi_min_distance = 40;
rsi_max_distance = 640;
num_nodes = 323;
num_neighbors = 3230;
neighbors = [
[0, 1],
[0, 2],
[0, 12],
[0, 30],
[0, 38],
[0, 40],
[0, 265],
[0, 266],
[0, 302],
[0, 304],
[0, 305],
[0, 306],
[0, 307],
[0, 309],
[0, 314],
[1, 2],
[1, 3],
[1, 27],
[1, 30],
[1, 40],
[1, 181],
[1, 266],
[1, 299],
[1, 306],
[1, 307],
[1, 308],
[1, 309],
[1, 314],
[2, 3],
[2, 12],
[2, 26],
[2, 27],
[2, 30],
[2, 33],
[2, 40],
[2, 181],
[2, 266],
[2, 275],
[2, 298],
[2, 299],
[2, 300],
[2, 302],
[2, 306],
[2, 309],
[2, 311],
[2, 314],
[3, 4],
[3, 5],
[3, 13],
[3, 25],
[3, 26],
[3, 27],
[3, 30],
[3, 31],
[3, 32],
[3, 33],
[3, 34],
[3, 61],
[3, 63],
[3, 126],
[3, 176],
[3, 181],
[3, 197],
[3, 203],
[3, 272],
[3, 275],
[3, 276],
[3, 299],
[3, 300],
[3, 309],
[4, 5],
[4, 13],
[4, 25],
[4, 63],
[4, 126],
[4, 176],
[4, 201],
[4, 272],
[4, 276],
[4, 283],
[4, 284],
[4, 321],
[5, 13],
[5, 25],
[5, 33],
[5, 34],
[5, 63],
[5, 126],
[5, 168],
[5, 176],
[5, 196],
[5, 197],
[5, 198],
[5, 200],
[5, 201],
[5, 203],
[5, 204],
[5, 206],
[5, 207],
[5, 210],
[5, 246],
[5, 248],
[5, 255],
[5, 256],
[5, 258],
[5, 266],
[5, 276],
[5, 283],
[5, 284],
[5, 285],
[5, 321],
[5, 322],
[6, 16],
[6, 39],
[6, 40],
[6, 310],
[6, 311],
[6, 313],
[7, 8],
[7, 9],
[7, 22],
[7, 24],
[7, 70],
[7, 122],
[7, 172],
[7, 192],
[7, 292],
[7, 318],
[7, 319],
[8, 9],
[8, 22],
[8, 23],
[8, 24],
[8, 172],
[8, 192],
[8, 293],
[9, 41],
[9, 42],
[9, 53],
[9, 70],
[9, 192],
[9, 292],
[9, 293],
[9, 295],
[9, 319],
[10, 11],
[10, 12],
[10, 14],
[10, 118],
[10, 119],
[10, 123],
[10, 183],
[10, 184],
[10, 264],
[10, 269],
[10, 277],
[10, 289],
[10, 304],
[11, 12],
[11, 30],
[11, 118],
[11, 119],
[11, 123],
[11, 183],
[11, 184],
[11, 185],
[11, 264],
[11, 289],
[11, 291],
[11, 302],
[11, 304],
[12, 29],
[12, 30],
[12, 40],
[12, 48],
[12, 119],
[12, 120],
[12, 123],
[12, 180],
[12, 181],
[12, 183],
[12, 185],
[12, 264],
[12, 266],
[12, 269],
[12, 271],
[12, 272],
[12, 274],
[12, 277],
[12, 278],
[12, 301],
[12, 302],
[12, 303],
[12, 304],
[12, 306],
[12, 307],
[12, 309],
[13, 25],
[13, 63],
[13, 176],
[13, 197],
[13, 283],
[13, 284],
[13, 285],
[13, 321],
[14, 15],
[14, 16],
[14, 27],
[14, 38],
[14, 50],
[14, 118],
[14, 119],
[14, 123],
[14, 158],
[14, 159],
[14, 160],
[14, 170],
[14, 183],
[14, 184],
[14, 264],
[14, 265],
[14, 269],
[14, 289],
[14, 290],
[14, 291],
[14, 310],
[14, 312],
[14, 315],
[14, 317],
[15, 16],
[15, 170],
[15, 316],
[15, 317],
[16, 27],
[16, 30],
[16, 39],
[16, 40],
[16, 123],
[16, 160],
[16, 170],
[16, 184],
[16, 266],
[16, 291],
[16, 310],
[16, 311],
[16, 313],
[16, 317],
[16, 320],
[17, 18],
[17, 20],
[17, 21],
[17, 57],
[17, 186],
[17, 187],
[17, 188],
[17, 280],
[17, 281],
[18, 60],
[18, 188],
[19, 20],
[19, 21],
[19, 41],
[19, 42],
[19, 43],
[19, 53],
[19, 70],
[19, 186],
[19, 280],
[19, 292],
[19, 294],
[20, 21],
[20, 43],
[20, 57],
[20, 58],
[20, 59],
[20, 70],
[20, 72],
[20, 186],
[20, 187],
[20, 280],
[20, 281],
[20, 294],
[21, 43],
[21, 57],
[21, 173],
[21, 186],
[21, 188],
[21, 280],
[21, 281],
[21, 282],
[22, 23],
[22, 24],
[22, 172],
[22, 318],
[23, 24],
[25, 28],
[25, 33],
[25, 63],
[25, 174],
[25, 175],
[25, 176],
[25, 200],
[25, 272],
[25, 283],
[25, 284],
[25, 285],
[25, 300],
[25, 321],
[26, 27],
[26, 28],
[26, 30],
[26, 31],
[26, 32],
[26, 33],
[26, 40],
[26, 61],
[26, 113],
[26, 116],
[26, 126],
[26, 144],
[26, 165],
[26, 181],
[26, 182],
[26, 197],
[26, 200],
[26, 203],
[26, 266],
[26, 270],
[26, 272],
[26, 275],
[26, 276],
[26, 298],
[26, 299],
[26, 300],
[26, 306],
[26, 309],
[26, 311],
[26, 314],
[26, 321],
[27, 28],
[27, 30],
[27, 31],
[27, 39],
[27, 40],
[27, 61],
[27, 62],
[27, 123],
[27, 181],
[27, 184],
[27, 266],
[27, 275],
[27, 278],
[27, 291],
[27, 299],
[27, 300],
[27, 302],
[27, 306],
[27, 308],
[27, 309],
[27, 310],
[27, 311],
[27, 313],
[28, 31],
[28, 33],
[28, 40],
[28, 61],
[28, 62],
[28, 126],
[28, 136],
[28, 200],
[28, 203],
[28, 266],
[28, 270],
[28, 275],
[28, 300],
[28, 306],
[28, 321],
[29, 30],
[29, 31],
[29, 47],
[29, 48],
[29, 119],
[29, 120],
[29, 123],
[29, 214],
[29, 266],
[29, 269],
[29, 271],
[29, 272],
[29, 273],
[29, 274],
[29, 277],
[29, 278],
[29, 279],
[29, 301],
[29, 302],
[29, 303],
[29, 304],
[29, 306],
[30, 31],
[30, 33],
[30, 38],
[30, 39],
[30, 40],
[30, 48],
[30, 180],
[30, 181],
[30, 182],
[30, 184],
[30, 185],
[30, 264],
[30, 266],
[30, 275],
[30, 277],
[30, 278],
[30, 289],
[30, 291],
[30, 298],
[30, 299],
[30, 300],
[30, 301],
[30, 302],
[30, 303],
[30, 304],
[30, 305],
[30, 306],
[30, 307],
[30, 308],
[30, 309],
[30, 310],
[30, 311],
[30, 312],
[30, 313],
[30, 314],
[31, 33],
[31, 40],
[31, 61],
[31, 62],
[31, 126],
[31, 168],
[31, 182],
[31, 197],
[31, 203],
[31, 266],
[31, 272],
[31, 275],
[31, 276],
[31, 278],
[31, 299],
[31, 300],
[31, 306],
[31, 309],
[31, 311],
[32, 33],
[32, 34],
[32, 197],
[32, 200],
[32, 201],
[32, 203],
[32, 204],
[32, 206],
[32, 207],
[32, 246],
[32, 255],
[32, 258],
[32, 276],
[33, 34],
[33, 61],
[33, 113],
[33, 116],
[33, 126],
[33, 144],
[33, 197],
[33, 200],
[33, 203],
[33, 252],
[33, 266],
[33, 272],
[33, 275],
[33, 276],
[33, 299],
[33, 300],
[33, 306],
[33, 309],
[33, 310],
[33, 311],
[34, 49],
[34, 113],
[34, 126],
[34, 137],
[34, 144],
[34, 150],
[34, 168],
[34, 196],
[34, 197],
[34, 198],
[34, 200],
[34, 201],
[34, 203],
[34, 204],
[34, 206],
[34, 207],
[34, 208],
[34, 210],
[34, 216],
[34, 217],
[34, 225],
[34, 229],
[34, 232],
[34, 241],
[34, 246],
[34, 248],
[34, 255],
[34, 258],
[34, 272],
[34, 276],
[34, 322],
[35, 36],
[35, 37],
[35, 50],
[35, 51],
[35, 56],
[35, 122],
[35, 139],
[35, 171],
[35, 173],
[35, 267],
[35, 268],
[35, 269],
[35, 315],
[35, 318],
[35, 320],
[36, 37],
[36, 51],
[36, 139],
[36, 172],
[36, 173],
[36, 192],
[36, 193],
[36, 268],
[36, 292],
[36, 319],
[36, 320],
[37, 50],
[37, 51],
[37, 139],
[37, 193],
[37, 268],
[37, 319],
[37, 320],
[38, 39],
[38, 40],
[38, 118],
[38, 119],
[38, 123],
[38, 184],
[38, 264],
[38, 265],
[38, 266],
[38, 269],
[38, 291],
[38, 301],
[38, 302],
[38, 305],
[38, 307],
[38, 308],
[38, 310],
[38, 312],
[38, 313],
[38, 314],
[38, 317],
[39, 40],
[39, 123],
[39, 184],
[39, 265],
[39, 291],
[39, 302],
[39, 305],
[39, 308],
[39, 310],
[39, 312],
[39, 313],
[39, 314],
[40, 61],
[40, 62],
[40, 126],
[40, 182],
[40, 196],
[40, 201],
[40, 203],
[40, 266],
[40, 270],
[40, 275],
[40, 299],
[40, 300],
[40, 302],
[40, 305],
[40, 306],
[40, 307],
[40, 308],
[40, 309],
[40, 310],
[40, 311],
[40, 313],
[40, 314],
[41, 42],
[41, 43],
[41, 53],
[41, 186],
[41, 292],
[41, 294],
[41, 319],
[42, 43],
[42, 53],
[42, 70],
[42, 186],
[42, 192],
[42, 292],
[42, 293],
[42, 294],
[42, 319],
[43, 53],
[43, 186],
[43, 280],
[43, 294],
[44, 45],
[44, 46],
[44, 67],
[44, 68],
[45, 46],
[45, 47],
[45, 49],
[45, 67],
[45, 68],
[45, 69],
[45, 124],
[45, 202],
[46, 67],
[46, 69],
[46, 202],
[47, 48],
[47, 49],
[47, 69],
[47, 118],
[47, 120],
[47, 124],
[47, 125],
[47, 202],
[47, 271],
[47, 273],
[47, 274],
[48, 49],
[48, 118],
[48, 119],
[48, 120],
[48, 123],
[48, 124],
[48, 125],
[48, 183],
[48, 266],
[48, 269],
[48, 271],
[48, 272],
[48, 273],
[48, 274],
[48, 277],
[48, 278],
[48, 289],
[48, 301],
[48, 302],
[48, 303],
[48, 304],
[48, 306],
[49, 120],
[49, 124],
[49, 125],
[49, 126],
[49, 197],
[49, 198],
[49, 200],
[49, 202],
[49, 203],
[49, 204],
[49, 271],
[49, 272],
[49, 273],
[49, 274],
[49, 276],
[49, 322],
[50, 51],
[50, 52],
[50, 56],
[50, 122],
[50, 123],
[50, 158],
[50, 159],
[50, 160],
[50, 170],
[50, 184],
[50, 268],
[50, 269],
[50, 288],
[50, 289],
[50, 290],
[50, 315],
[50, 320],
[51, 52],
[51, 122],
[51, 139],
[51, 268],
[51, 315],
[51, 316],
[51, 319],
[51, 320],
[52, 268],
[52, 315],
[52, 316],
[53, 70],
[53, 186],
[53, 280],
[53, 292],
[53, 294],
[53, 319],
[54, 55],
[54, 56],
[54, 286],
[54, 287],
[54, 288],
[54, 318],
[55, 56],
[55, 171],
[55, 172],
[55, 267],
[55, 287],
[55, 288],
[55, 318],
[55, 320],
[56, 267],
[56, 268],
[56, 269],
[56, 288],
[56, 315],
[56, 320],
[57, 58],
[57, 59],
[57, 70],
[57, 72],
[57, 186],
[57, 280],
[57, 281],
[58, 59],
[58, 70],
[58, 71],
[58, 72],
[59, 72],
[59, 186],
[59, 187],
[59, 188],
[59, 281],
[60, 188],
[61, 62],
[61, 63],
[61, 126],
[61, 197],
[61, 200],
[61, 203],
[61, 266],
[61, 275],
[61, 276],
[61, 284],
[61, 299],
[61, 300],
[61, 306],
[61, 311],
[62, 63],
[62, 266],
[62, 270],
[62, 275],
[62, 299],
[62, 306],
[63, 126],
[63, 175],
[63, 176],
[63, 197],
[63, 200],
[63, 203],
[63, 266],
[63, 270],
[63, 283],
[63, 284],
[63, 285],
[63, 321],
[63, 322],
[64, 65],
[64, 66],
[64, 103],
[64, 105],
[64, 109],
[64, 113],
[64, 116],
[64, 127],
[64, 143],
[64, 144],
[64, 149],
[64, 150],
[64, 153],
[64, 155],
[64, 156],
[64, 161],
[64, 163],
[64, 167],
[64, 168],
[64, 169],
[64, 190],
[64, 201],
[64, 213],
[64, 214],
[64, 215],
[64, 219],
[64, 220],
[64, 226],
[64, 228],
[64, 229],
[64, 232],
[64, 233],
[64, 234],
[64, 235],
[64, 236],
[64, 237],
[64, 240],
[64, 249],
[64, 250],
[64, 261],
[65, 66],
[65, 129],
[65, 150],
[65, 169],
[65, 190],
[65, 212],
[65, 215],
[65, 220],
[65, 227],
[65, 228],
[65, 229],
[65, 230],
[65, 233],
[65, 236],
[65, 237],
[65, 240],
[65, 250],
[65, 261],
[65, 262],
[66, 107],
[66, 109],
[66, 110],
[66, 129],
[66, 141],
[66, 145],
[66, 149],
[66, 150],
[66, 151],
[66, 157],
[66, 169],
[66, 190],
[66, 215],
[66, 219],
[66, 220],
[66, 221],
[66, 224],
[66, 228],
[66, 229],
[66, 230],
[66, 231],
[66, 233],
[66, 237],
[66, 250],
[66, 261],
[66, 263],
[67, 68],
[67, 69],
[68, 69],
[69, 124],
[69, 200],
[69, 202],
[70, 71],
[70, 72],
[70, 186],
[70, 192],
[70, 280],
[70, 292],
[70, 293],
[70, 294],
[70, 319],
[71, 72],
[72, 186],
[72, 187],
[72, 188],
[72, 281],
[73, 74],
[73, 75],
[73, 76],
[73, 78],
[73, 81],
[73, 83],
[73, 84],
[73, 87],
[73, 91],
[73, 92],
[73, 93],
[73, 94],
[73, 107],
[74, 75],
[74, 76],
[74, 77],
[74, 79],
[74, 83],
[74, 85],
[74, 86],
[74, 87],
[74, 92],
[74, 97],
[75, 76],
[75, 78],
[75, 81],
[75, 83],
[75, 87],
[75, 89],
[75, 92],
[75, 94],
[75, 95],
[75, 99],
[75, 101],
[75, 106],
[75, 117],
[76, 77],
[76, 78],
[76, 79],
[76, 81],
[76, 83],
[76, 85],
[76, 86],
[76, 87],
[76, 89],
[76, 92],
[76, 94],
[76, 97],
[76, 99],
[76, 101],
[76, 254],
[77, 78],
[77, 79],
[77, 80],
[77, 81],
[77, 86],
[77, 99],
[77, 106],
[77, 115],
[77, 117],
[77, 164],
[77, 166],
[77, 249],
[78, 81],
[78, 87],
[78, 89],
[78, 92],
[78, 93],
[78, 95],
[78, 101],
[78, 106],
[78, 164],
[78, 166],
[79, 80],
[79, 81],
[79, 83],
[79, 85],
[79, 86],
[79, 97],
[79, 98],
[79, 99],
[79, 112],
[79, 164],
[80, 81],
[80, 86],
[80, 98],
[80, 101],
[80, 106],
[80, 112],
[80, 113],
[80, 114],
[80, 115],
[80, 116],
[80, 117],
[80, 129],
[80, 143],
[80, 144],
[80, 145],
[80, 154],
[80, 155],
[80, 156],
[80, 164],
[80, 165],
[80, 166],
[80, 168],
[80, 213],
[80, 230],
[80, 231],
[80, 249],
[80, 252],
[81, 86],
[81, 88],
[81, 89],
[81, 93],
[81, 99],
[81, 106],
[81, 115],
[81, 117],
[81, 140],
[81, 146],
[81, 164],
[81, 166],
[81, 231],
[81, 249],
[81, 252],
[81, 254],
[82, 83],
[82, 84],
[82, 87],
[82, 89],
[82, 91],
[83, 84],
[83, 85],
[83, 87],
[83, 91],
[83, 92],
[83, 94],
[83, 97],
[84, 87],
[84, 89],
[84, 91],
[84, 93],
[84, 94],
[84, 100],
[84, 101],
[85, 86],
[85, 87],
[85, 92],
[85, 97],
[85, 98],
[85, 99],
[85, 112],
[86, 87],
[86, 92],
[86, 98],
[86, 99],
[87, 89],
[87, 91],
[87, 92],
[87, 94],
[87, 99],
[88, 89],
[88, 90],
[88, 94],
[88, 100],
[88, 101],
[89, 90],
[89, 91],
[89, 93],
[89, 94],
[89, 101],
[90, 94],
[90, 96],
[90, 100],
[90, 101],
[90, 102],
[91, 92],
[91, 93],
[91, 94],
[92, 93],
[92, 94],
[92, 97],
[93, 94],
[93, 101],
[94, 95],
[94, 96],
[94, 101],
[94, 106],
[94, 252],
[95, 96],
[95, 101],
[96, 100],
[96, 101],
[96, 102],
[97, 98],
[97, 99],
[97, 112],
[98, 99],
[98, 103],
[98, 112],
[98, 113],
[98, 114],
[98, 161],
[98, 164],
[98, 165],
[100, 101],
[100, 102],
[101, 102],
[103, 104],
[103, 105],
[103, 112],
[103, 113],
[103, 114],
[103, 115],
[103, 116],
[103, 143],
[103, 144],
[103, 146],
[103, 161],
[103, 162],
[103, 163],
[103, 165],
[103, 167],
[103, 196],
[103, 213],
[103, 219],
[103, 225],
[103, 229],
[103, 232],
[103, 234],
[103, 235],
[103, 241],
[103, 249],
[103, 250],
[103, 252],
[104, 105],
[104, 109],
[104, 116],
[104, 127],
[104, 129],
[104, 130],
[104, 131],
[104, 133],
[104, 144],
[104, 150],
[104, 156],
[104, 162],
[104, 165],
[104, 167],
[104, 168],
[104, 169],
[104, 178],
[104, 189],
[104, 190],
[104, 198],
[104, 201],
[104, 205],
[104, 207],
[104, 209],
[104, 210],
[104, 212],
[104, 213],
[104, 214],
[104, 215],
[104, 216],
[104, 217],
[104, 218],
[104, 222],
[104, 223],
[104, 224],
[104, 225],
[104, 226],
[104, 227],
[104, 229],
[104, 232],
[104, 235],
[104, 236],
[104, 238],
[104, 239],
[104, 240],
[104, 241],
[104, 243],
[104, 244],
[104, 248],
[104, 252],
[104, 276],
[105, 106],
[105, 109],
[105, 116],
[105, 117],
[105, 144],
[105, 145],
[105, 149],
[105, 150],
[105, 151],
[105, 152],
[105, 153],
[105, 154],
[105, 155],
[105, 156],
[105, 157],
[105, 162],
[105, 163],
[105, 165],
[105, 167],
[105, 169],
[105, 213],
[105, 219],
[105, 221],
[105, 229],
[105, 231],
[105, 232],
[105, 234],
[105, 235],
[105, 249],
[105, 250],
[105, 252],
[105, 261],
[106, 107],
[106, 108],
[106, 109],
[106, 111],
[106, 114],
[106, 115],
[106, 116],
[106, 117],
[106, 140],
[106, 143],
[106, 144],
[106, 145],
[106, 146],
[106, 149],
[106, 152],
[106, 153],
[106, 154],
[106, 155],
[106, 156],
[106, 157],
[106, 163],
[106, 164],
[106, 166],
[106, 229],
[106, 231],
[106, 235],
[106, 249],
[106, 250],
[106, 251],
[106, 252],
[106, 254],
[107, 108],
[107, 110],
[107, 111],
[107, 117],
[107, 140],
[107, 141],
[107, 142],
[107, 145],
[107, 146],
[107, 147],
[107, 148],
[107, 229],
[107, 230],
[107, 231],
[107, 250],
[107, 251],
[107, 252],
[107, 253],
[107, 261],
[108, 111],
[108, 146],
[108, 148],
[108, 231],
[108, 236],
[108, 252],
[108, 253],
[108, 254],
[109, 110],
[109, 111],
[109, 113],
[109, 114],
[109, 115],
[109, 116],
[109, 117],
[109, 140],
[109, 143],
[109, 144],
[109, 145],
[109, 149],
[109, 150],
[109, 151],
[109, 153],
[109, 154],
[109, 155],
[109, 156],
[109, 157],
[109, 163],
[109, 165],
[109, 167],
[109, 219],
[109, 221],
[109, 229],
[109, 230],
[109, 231],
[109, 232],
[109, 234],
[109, 235],
[109, 249],
[109, 250],
[109, 251],
[109, 252],
[109, 261],
[110, 111],
[110, 140],
[110, 141],
[110, 142],
[110, 146],
[110, 147],
[110, 150],
[110, 151],
[110, 169],
[110, 221],
[110, 226],
[110, 229],
[110, 230],
[110, 231],
[110, 237],
[110, 250],
[110, 261],
[110, 262],
[110, 263],
[111, 117],
[111, 140],
[111, 142],
[111, 145],
[111, 146],
[111, 231],
[111, 249],
[111, 250],
[111, 251],
[111, 252],
[111, 254],
[112, 113],
[112, 114],
[112, 164],
[112, 165],
[112, 241],
[113, 114],
[113, 116],
[113, 143],
[113, 144],
[113, 161],
[113, 162],
[113, 197],
[113, 200],
[113, 201],
[113, 204],
[113, 205],
[113, 207],
[113, 209],
[113, 217],
[113, 223],
[113, 225],
[113, 229],
[113, 235],
[113, 241],
[113, 247],
[113, 252],
[113, 257],
[113, 299],
[114, 115],
[114, 116],
[114, 143],
[114, 152],
[114, 164],
[114, 165],
[114, 209],
[114, 213],
[114, 249],
[115, 116],
[115, 117],
[115, 143],
[115, 146],
[115, 155],
[115, 164],
[115, 165],
[115, 166],
[115, 211],
[115, 235],
[115, 249],
[115, 252],
[116, 117],
[116, 143],
[116, 144],
[116, 145],
[116, 149],
[116, 150],
[116, 151],
[116, 152],
[116, 153],
[116, 154],
[116, 155],
[116, 156],
[116, 157],
[116, 161],
[116, 162],
[116, 163],
[116, 165],
[116, 166],
[116, 167],
[116, 169],
[116, 210],
[116, 214],
[116, 219],
[116, 229],
[116, 230],
[116, 231],
[116, 232],
[116, 233],
[116, 234],
[116, 235],
[116, 241],
[116, 249],
[116, 250],
[116, 252],
[116, 261],
[116, 300],
[117, 140],
[117, 143],
[117, 145],
[117, 146],
[117, 152],
[117, 153],
[117, 154],
[117, 155],
[117, 157],
[117, 165],
[117, 166],
[117, 167],
[117, 210],
[117, 231],
[117, 249],
[117, 251],
[117, 252],
[117, 254],
[118, 119],
[118, 120],
[118, 121],
[118, 122],
[118, 123],
[118, 158],
[118, 159],
[118, 170],
[118, 183],
[118, 184],
[118, 264],
[118, 268],
[118, 269],
[118, 271],
[118, 277],
[118, 289],
[118, 290],
[118, 304],
[118, 312],
[119, 120],
[119, 123],
[119, 183],
[119, 185],
[119, 199],
[119, 264],
[119, 266],
[119, 269],
[119, 271],
[119, 277],
[119, 278],
[119, 289],
[119, 301],
[119, 303],
[119, 304],
[120, 124],
[120, 202],
[120, 269],
[120, 271],
[120, 273],
[120, 274],
[120, 276],
[120, 277],
[121, 122],
[121, 123],
[121, 183],
[121, 269],
[121, 289],
[122, 123],
[122, 158],
[122, 159],
[122, 171],
[122, 172],
[122, 267],
[122, 268],
[122, 269],
[122, 288],
[122, 290],
[122, 315],
[122, 318],
[122, 319],
[122, 320],
[123, 158],
[123, 159],
[123, 160],
[123, 183],
[123, 184],
[123, 185],
[123, 264],
[123, 265],
[123, 266],
[123, 269],
[123, 277],
[123, 278],
[123, 289],
[123, 290],
[123, 291],
[123, 302],
[123, 303],
[123, 307],
[123, 310],
[123, 312],
[123, 313],
[123, 315],
[124, 125],
[124, 126],
[124, 202],
[124, 271],
[124, 273],
[124, 274],
[124, 276],
[125, 126],
[125, 266],
[125, 271],
[125, 272],
[125, 273],
[125, 274],
[125, 275],
[125, 276],
[125, 278],
[125, 279],
[125, 304],
[126, 197],
[126, 198],
[126, 200],
[126, 203],
[126, 204],
[126, 206],
[126, 266],
[126, 272],
[126, 274],
[126, 275],
[126, 276],
[126, 300],
[126, 306],
[126, 322],
[127, 128],
[127, 129],
[127, 130],
[127, 131],
[127, 132],
[127, 133],
[127, 134],
[127, 168],
[127, 189],
[127, 196],
[127, 207],
[127, 210],
[127, 212],
[127, 213],
[127, 214],
[127, 218],
[127, 220],
[127, 224],
[127, 225],
[127, 226],
[127, 229],
[127, 235],
[127, 236],
[127, 239],
[127, 240],
[127, 241],
[127, 243],
[127, 244],
[128, 129],
[128, 131],
[128, 132],
[128, 133],
[128, 134],
[128, 189],
[128, 212],
[128, 236],
[128, 239],
[128, 240],
[128, 243],
[129, 132],
[129, 134],
[129, 168],
[129, 189],
[129, 190],
[129, 212],
[129, 214],
[129, 215],
[129, 220],
[129, 224],
[129, 226],
[129, 227],
[129, 228],
[129, 236],
[129, 237],
[129, 240],
[129, 261],
[130, 131],
[130, 132],
[130, 133],
[130, 144],
[130, 150],
[130, 162],
[130, 168],
[130, 177],
[130, 178],
[130, 189],
[130, 194],
[130, 195],
[130, 196],
[130, 198],
[130, 201],
[130, 204],
[130, 205],
[130, 207],
[130, 209],
[130, 210],
[130, 212],
[130, 213],
[130, 216],
[130, 217],
[130, 222],
[130, 223],
[130, 225],
[130, 229],
[130, 232],
[130, 235],
[130, 236],
[130, 238],
[130, 239],
[130, 241],
[130, 243],
[130, 244],
[130, 246],
[130, 248],
[130, 255],
[130, 257],
[131, 132],
[131, 133],
[131, 162],
[131, 177],
[131, 178],
[131, 189],
[131, 195],
[131, 205],
[131, 212],
[131, 218],
[131, 223],
[131, 239],
[131, 243],
[132, 133],
[132, 134],
[132, 168],
[132, 189],
[132, 209],
[132, 212],
[132, 214],
[132, 215],
[132, 226],
[132, 239],
[132, 240],
[132, 242],
[132, 243],
[133, 134],
[133, 168],
[133, 178],
[133, 189],
[133, 190],
[133, 195],
[133, 201],
[133, 205],
[133, 207],
[133, 210],
[133, 212],
[133, 216],
[133, 217],
[133, 223],
[133, 225],
[133, 239],
[133, 240],
[133, 241],
[133, 242],
[133, 243],
[133, 248],
[133, 255],
[133, 257],
[133, 260],
[134, 168],
[134, 189],
[134, 190],
[134, 212],
[134, 214],
[134, 226],
[134, 236],
[134, 239],
[134, 240],
[135, 137],
[135, 138],
[135, 198],
[135, 206],
[135, 246],
[135, 247],
[135, 255],
[135, 256],
[135, 257],
[135, 258],
[135, 259],
[135, 260],
[135, 322],
[136, 137],
[136, 138],
[136, 168],
[136, 197],
[136, 198],
[136, 200],
[136, 201],
[136, 204],
[136, 206],
[136, 246],
[136, 247],
[136, 257],
[136, 258],
[136, 259],
[136, 260],
[137, 138],
[137, 168],
[137, 179],
[137, 198],
[137, 207],
[137, 210],
[137, 216],
[137, 217],
[137, 218],
[137, 241],
[137, 242],
[137, 244],
[137, 246],
[137, 247],
[137, 248],
[137, 255],
[137, 256],
[137, 257],
[137, 258],
[137, 260],
[138, 169],
[138, 196],
[138, 198],
[138, 201],
[138, 204],
[138, 206],
[138, 216],
[138, 243],
[138, 246],
[138, 247],
[138, 255],
[138, 257],
[138, 258],
[138, 260],
[138, 279],
[139, 173],
[139, 191],
[139, 192],
[139, 193],
[139, 267],
[139, 268],
[139, 292],
[139, 315],
[139, 318],
[139, 319],
[139, 320],
[140, 141],
[140, 142],
[140, 146],
[140, 163],
[140, 164],
[140, 166],
[140, 229],
[140, 230],
[140, 231],
[140, 249],
[140, 250],
[140, 251],
[141, 142],
[141, 146],
[141, 221],
[141, 230],
[141, 237],
[141, 263],
[142, 146],
[142, 148],
[142, 251],
[143, 144],
[143, 145],
[143, 146],
[143, 152],
[143, 155],
[143, 163],
[143, 164],
[143, 165],
[143, 167],
[143, 213],
[143, 214],
[143, 219],
[143, 229],
[143, 235],
[143, 249],
[143, 252],
[143, 261],
[144, 145],
[144, 146],
[144, 149],
[144, 150],
[144, 153],
[144, 155],
[144, 156],
[144, 157],
[144, 161],
[144, 162],
[144, 163],
[144, 164],
[144, 165],
[144, 167],
[144, 168],
[144, 196],
[144, 198],
[144, 201],
[144, 207],
[144, 210],
[144, 213],
[144, 216],
[144, 219],
[144, 225],
[144, 229],
[144, 232],
[144, 234],
[144, 235],
[144, 241],
[144, 244],
[144, 247],
[144, 248],
[144, 249],
[144, 250],
[144, 252],
[144, 255],
[144, 261],
[145, 149],
[145, 152],
[145, 153],
[145, 154],
[145, 155],
[145, 156],
[145, 157],
[145, 163],
[145, 165],
[145, 166],
[145, 219],
[145, 229],
[145, 231],
[145, 249],
[145, 251],
[145, 252],
[146, 147],
[146, 148],
[146, 155],
[146, 163],
[146, 230],
[146, 249],
[146, 251],
[146, 252],
[146, 253],
[147, 148],
[147, 230],
[147, 253],
[148, 253],
[149, 150],
[149, 151],
[149, 152],
[149, 153],
[149, 155],
[149, 156],
[149, 157],
[149, 165],
[149, 167],
[149, 169],
[149, 219],
[149, 221],
[149, 229],
[149, 231],
[149, 232],
[149, 234],
[149, 235],
[149, 249],
[149, 250],
[149, 252],
[149, 261],
[150, 151],
[150, 153],
[150, 156],
[150, 167],
[150, 168],
[150, 169],
[150, 201],
[150, 204],
[150, 205],
[150, 207],
[150, 219],
[150, 220],
[150, 221],
[150, 224],
[150, 229],
[150, 232],
[150, 233],
[150, 234],
[150, 235],
[150, 236],
[150, 237],
[150, 241],
[150, 250],
[150, 252],
[150, 261],
[151, 157],
[151, 169],
[151, 214],
[151, 221],
[151, 229],
[151, 230],
[151, 231],
[151, 234],
[151, 249],
[151, 250],
[152, 153],
[152, 154],
[152, 155],
[152, 163],
[152, 249],
[152, 252],
[153, 154],
[153, 155],
[153, 156],
[153, 157],
[153, 167],
[153, 229],
[153, 231],
[153, 232],
[153, 235],
[153, 249],
[153, 250],
[154, 155],
[154, 157],
[154, 166],
[154, 231],
[154, 249],
[154, 252],
[155, 156],
[155, 157],
[155, 166],
[155, 167],
[155, 219],
[155, 229],
[155, 231],
[155, 235],
[155, 249],
[156, 157],
[156, 162],
[156, 163],
[156, 165],
[156, 167],
[156, 168],
[156, 190],
[156, 198],
[156, 201],
[156, 210],
[156, 219],
[156, 220],
[156, 229],
[156, 232],
[156, 233],
[156, 234],
[156, 235],
[156, 241],
[156, 249],
[156, 250],
[156, 252],
[156, 261],
[157, 163],
[157, 165],
[157, 166],
[157, 219],
[157, 229],
[157, 231],
[157, 234],
[157, 249],
[157, 250],
[157, 252],
[157, 261],
[158, 159],
[158, 160],
[158, 170],
[158, 184],
[158, 269],
[158, 289],
[158, 290],
[158, 315],
[159, 160],
[159, 170],
[159, 184],
[159, 268],
[159, 269],
[159, 290],
[159, 315],
[160, 170],
[160, 184],
[160, 269],
[160, 289],
[160, 290],
[160, 291],
[160, 312],
[160, 315],
[161, 162],
[161, 163],
[161, 167],
[161, 209],
[161, 213],
[161, 225],
[161, 229],
[161, 232],
[161, 235],
[161, 241],
[161, 252],
[162, 163],
[162, 165],
[162, 167],
[162, 168],
[162, 196],
[162, 201],
[162, 205],
[162, 207],
[162, 208],
[162, 209],
[162, 210],
[162, 216],
[162, 217],
[162, 218],
[162, 222],
[162, 223],
[162, 224],
[162, 225],
[162, 229],
[162, 232],
[162, 238],
[162, 239],
[162, 241],
[162, 242],
[162, 243],
[162, 244],
[162, 247],
[162, 248],
[162, 252],
[162, 255],
[162, 257],
[162, 263],
[163, 165],
[163, 167],
[163, 219],
[163, 229],
[163, 232],
[163, 235],
[163, 249],
[164, 165],
[164, 166],
[164, 249],
[164, 252],
[165, 166],
[165, 167],
[165, 213],
[165, 224],
[165, 229],
[165, 235],
[165, 240],
[165, 249],
[166, 230],
[166, 231],
[166, 249],
[166, 252],
[167, 168],
[167, 169],
[167, 213],
[167, 219],
[167, 229],
[167, 232],
[167, 234],
[167, 235],
[167, 261],
[168, 169],
[168, 176],
[168, 189],
[168, 190],
[168, 196],
[168, 197],
[168, 198],
[168, 200],
[168, 201],
[168, 203],
[168, 204],
[168, 205],
[168, 207],
[168, 209],
[168, 210],
[168, 212],
[168, 213],
[168, 214],
[168, 216],
[168, 217],
[168, 218],
[168, 222],
[168, 223],
[168, 224],
[168, 225],
[168, 226],
[168, 229],
[168, 232],
[168, 235],
[168, 236],
[168, 239],
[168, 240],
[168, 241],
[168, 242],
[168, 244],
[168, 246],
[168, 247],
[168, 248],
[168, 250],
[168, 252],
[168, 255],
[168, 256],
[168, 257],
[168, 258],
[168, 260],
[168, 276],
[168, 285],
[168, 300],
[168, 321],
[169, 190],
[169, 214],
[169, 215],
[169, 219],
[169, 220],
[169, 221],
[169, 226],
[169, 227],
[169, 228],
[169, 229],
[169, 230],
[169, 231],
[169, 232],
[169, 233],
[169, 234],
[169, 235],
[169, 236],
[169, 237],
[169, 240],
[169, 246],
[169, 250],
[169, 258],
[169, 261],
[169, 262],
[169, 263],
[169, 300],
[170, 183],
[170, 184],
[170, 198],
[170, 265],
[170, 267],
[170, 289],
[170, 290],
[170, 291],
[170, 302],
[170, 310],
[170, 315],
[170, 317],
[171, 172],
[171, 173],
[171, 267],
[171, 268],
[171, 286],
[171, 318],
[171, 320],
[172, 173],
[172, 191],
[172, 192],
[172, 193],
[172, 318],
[172, 319],
[172, 320],
[173, 191],
[173, 193],
[173, 268],
[173, 318],
[173, 319],
[173, 320],
[174, 176],
[174, 321],
[175, 176],
[175, 321],
[176, 197],
[176, 200],
[176, 203],
[176, 256],
[176, 283],
[176, 284],
[176, 285],
[176, 321],
[176, 322],
[177, 178],
[177, 194],
[177, 195],
[177, 205],
[177, 209],
[177, 211],
[177, 223],
[177, 225],
[177, 239],
[177, 241],
[177, 242],
[177, 243],
[177, 245],
[178, 195],
[178, 205],
[178, 239],
[178, 243],
[178, 245],
[179, 216],
[179, 247],
[179, 255],
[179, 257],
[180, 181],
[180, 182],
[180, 266],
[180, 302],
[180, 303],
[180, 304],
[180, 306],
[180, 309],
[181, 182],
[181, 266],
[181, 298],
[181, 299],
[181, 300],
[181, 302],
[181, 303],
[181, 306],
[181, 309],
[181, 310],
[181, 311],
[182, 266],
[182, 278],
[182, 298],
[182, 299],
[182, 300],
[182, 306],
[182, 309],
[183, 184],
[183, 185],
[183, 264],
[183, 265],
[183, 269],
[183, 277],
[183, 289],
[183, 301],
[183, 304],
[184, 185],
[184, 264],
[184, 265],
[184, 266],
[184, 268],
[184, 269],
[184, 289],
[184, 290],
[184, 291],
[184, 302],
[184, 307],
[184, 310],
[184, 312],
[184, 313],
[184, 315],
[184, 317],
[184, 320],
[185, 264],
[185, 266],
[185, 302],
[185, 303],
[185, 304],
[186, 187],
[186, 188],
[186, 280],
[186, 281],
[186, 282],
[187, 188],
[187, 281],
[188, 281],
[189, 190],
[189, 201],
[189, 205],
[189, 207],
[189, 212],
[189, 214],
[189, 216],
[189, 217],
[189, 225],
[189, 226],
[189, 233],
[189, 234],
[189, 236],
[189, 240],
[189, 241],
[189, 244],
[189, 248],
[189, 260],
[190, 212],
[190, 213],
[190, 214],
[190, 215],
[190, 220],
[190, 226],
[190, 227],
[190, 228],
[190, 229],
[190, 235],
[190, 236],
[190, 237],
[190, 240],
[190, 241],
[190, 261],
[191, 192],
[191, 193],
[191, 318],
[191, 319],
[192, 193],
[192, 292],
[192, 293],
[192, 318],
[192, 319],
[193, 268],
[193, 292],
[193, 318],
[193, 319],
[193, 320],
[194, 195],
[194, 205],
[194, 208],
[194, 209],
[194, 210],
[194, 211],
[194, 218],
[194, 223],
[194, 225],
[194, 238],
[194, 239],
[194, 241],
[194, 242],
[194, 243],
[194, 245],
[195, 198],
[195, 205],
[195, 211],
[195, 218],
[195, 225],
[195, 239],
[195, 242],
[195, 243],
[195, 245],
[196, 197],
[196, 198],
[196, 200],
[196, 201],
[196, 204],
[196, 206],
[196, 207],
[196, 210],
[196, 212],
[196, 213],
[196, 216],
[196, 217],
[196, 225],
[196, 229],
[196, 232],
[196, 234],
[196, 241],
[196, 246],
[196, 248],
[196, 255],
[196, 257],
[196, 258],
[196, 276],
[196, 307],
[196, 322],
[197, 198],
[197, 200],
[197, 201],
[197, 203],
[197, 204],
[197, 206],
[197, 207],
[197, 246],
[197, 255],
[197, 256],
[197, 258],
[197, 272],
[197, 275],
[197, 276],
[197, 285],
[197, 321],
[197, 322],
[198, 200],
[198, 201],
[198, 203],
[198, 204],
[198, 205],
[198, 206],
[198, 207],
[198, 210],
[198, 216],
[198, 217],
[198, 225],
[198, 239],
[198, 241],
[198, 242],
[198, 244],
[198, 246],
[198, 247],
[198, 248],
[198, 255],
[198, 256],
[198, 257],
[198, 258],
[198, 259],
[198, 260],
[198, 272],
[198, 276],
[198, 322],
[199, 200],
[199, 201],
[200, 201],
[200, 203],
[200, 204],
[200, 206],
[200, 207],
[200, 246],
[200, 256],
[200, 258],
[200, 276],
[200, 285],
[200, 300],
[200, 321],
[200, 322],
[201, 202],
[201, 204],
[201, 205],
[201, 206],
[201, 207],
[201, 209],
[201, 210],
[201, 211],
[201, 213],
[201, 216],
[201, 217],
[201, 220],
[201, 223],
[201, 225],
[201, 229],
[201, 232],
[201, 235],
[201, 241],
[201, 246],
[201, 247],
[201, 248],
[201, 250],
[201, 252],
[201, 255],
[201, 257],
[201, 258],
[201, 259],
[201, 276],
[201, 299],
[201, 322],
[202, 203],
[202, 204],
[202, 273],
[202, 274],
[202, 276],
[203, 204],
[203, 207],
[203, 246],
[203, 258],
[203, 275],
[203, 276],
[203, 285],
[203, 300],
[203, 306],
[203, 322],
[204, 206],
[204, 207],
[204, 210],
[204, 216],
[204, 217],
[204, 225],
[204, 229],
[204, 241],
[204, 246],
[204, 247],
[204, 257],
[204, 258],
[204, 276],
[204, 322],
[205, 207],
[205, 208],
[205, 209],
[205, 211],
[205, 212],
[205, 217],
[205, 222],
[205, 223],
[205, 225],
[205, 238],
[205, 239],
[205, 240],
[205, 241],
[205, 242],
[205, 243],
[205, 244],
[205, 245],
[205, 248],
[206, 207],
[206, 210],
[206, 216],
[206, 217],
[206, 246],
[206, 247],
[206, 255],
[206, 256],
[206, 257],
[206, 258],
[206, 259],
[206, 260],
[206, 276],
[206, 322],
[207, 208],
[207, 209],
[207, 210],
[207, 213],
[207, 214],
[207, 216],
[207, 217],
[207, 218],
[207, 223],
[207, 225],
[207, 229],
[207, 235],
[207, 239],
[207, 241],
[207, 242],
[207, 244],
[207, 246],
[207, 247],
[207, 248],
[207, 255],
[207, 257],
[207, 258],
[207, 260],
[207, 276],
[207, 322],
[208, 209],
[208, 210],
[208, 211],
[208, 217],
[208, 218],
[208, 225],
[208, 239],
[208, 241],
[208, 242],
[208, 244],
[208, 245],
[209, 210],
[209, 211],
[209, 213],
[209, 218],
[209, 222],
[209, 223],
[209, 224],
[209, 225],
[209, 232],
[209, 234],
[209, 238],
[209, 239],
[209, 240],
[209, 241],
[209, 242],
[209, 243],
[209, 244],
[209, 248],
[209, 257],
[210, 211],
[210, 214],
[210, 216],
[210, 217],
[210, 218],
[210, 223],
[210, 225],
[210, 229],
[210, 239],
[210, 241],
[210, 242],
[210, 244],
[210, 246],
[210, 247],
[210, 248],
[210, 255],
[210, 257],
[210, 258],
[210, 260],
[210, 276],
[210, 322],
[211, 218],
[211, 225],
[211, 239],
[211, 241],
[211, 242],
[211, 243],
[211, 244],
[211, 245],
[212, 213],
[212, 214],
[212, 215],
[212, 220],
[212, 225],
[212, 226],
[212, 227],
[212, 228],
[212, 235],
[212, 236],
[212, 240],
[212, 261],
[213, 214],
[213, 215],
[213, 216],
[213, 220],
[213, 224],
[213, 225],
[213, 226],
[213, 229],
[213, 232],
[213, 235],
[213, 240],
[213, 241],
[213, 252],
[214, 215],
[214, 220],
[214, 224],
[214, 225],
[214, 226],
[214, 229],
[214, 232],
[214, 233],
[214, 235],
[214, 236],
[214, 239],
[214, 240],
[214, 243],
[214, 261],
[215, 220],
[215, 226],
[215, 227],
[215, 228],
[215, 229],
[215, 233],
[215, 235],
[215, 236],
[215, 237],
[215, 240],
[215, 261],
[215, 262],
[216, 217],
[216, 223],
[216, 225],
[216, 229],
[216, 235],
[216, 239],
[216, 241],
[216, 242],
[216, 244],
[216, 246],
[216, 247],
[216, 248],
[216, 255],
[216, 257],
[216, 258],
[216, 260],
[217, 218],
[217, 223],
[217, 225],
[217, 239],
[217, 241],
[217, 242],
[217, 244],
[217, 246],
[217, 247],
[217, 248],
[217, 255],
[217, 257],
[217, 258],
[217, 260],
[217, 276],
[217, 322],
[218, 225],
[218, 239],
[218, 240],
[218, 241],
[218, 242],
[218, 243],
[218, 244],
[218, 245],
[218, 248],
[218, 260],
[219, 220],
[219, 221],
[219, 229],
[219, 231],
[219, 232],
[219, 233],
[219, 234],
[219, 235],
[219, 240],
[219, 249],
[219, 250],
[219, 261],
[220, 221],
[220, 226],
[220, 227],
[220, 228],
[220, 229],
[220, 230],
[220, 232],
[220, 233],
[220, 235],
[220, 236],
[220, 237],
[220, 240],
[220, 250],
[220, 261],
[220, 262],
[220, 263],
[221, 228],
[221, 229],
[221, 230],
[221, 231],
[221, 233],
[221, 234],
[221, 236],
[221, 237],
[221, 250],
[221, 261],
[221, 263],
[222, 223],
[222, 224],
[222, 238],
[222, 239],
[222, 241],
[222, 243],
[222, 244],
[223, 224],
[223, 225],
[223, 238],
[223, 239],
[223, 240],
[223, 241],
[223, 243],
[223, 248],
[223, 260],
[223, 276],
[224, 235],
[224, 238],
[224, 240],
[224, 241],
[224, 243],
[224, 248],
[225, 229],
[225, 238],
[225, 239],
[225, 241],
[225, 242],
[225, 243],
[225, 244],
[225, 245],
[225, 246],
[225, 248],
[225, 255],
[225, 257],
[225, 258],
[225, 260],
[225, 322],
[226, 227],
[226, 228],
[226, 229],
[226, 235],
[226, 236],
[226, 240],
[226, 261],
[227, 228],
[227, 229],
[227, 230],
[227, 233],
[227, 236],
[227, 237],
[227, 240],
[227, 250],
[227, 261],
[227, 262],
[228, 229],
[228, 233],
[228, 235],
[228, 236],
[228, 237],
[228, 240],
[228, 261],
[229, 230],
[229, 231],
[229, 232],
[229, 233],
[229, 234],
[229, 235],
[229, 236],
[229, 237],
[229, 240],
[229, 241],
[229, 242],
[229, 249],
[229, 250],
[229, 252],
[229, 261],
[229, 263],
[229, 300],
[230, 231],
[230, 237],
[230, 250],
[230, 261],
[230, 262],
[230, 263],
[231, 234],
[231, 249],
[231, 250],
[231, 251],
[231, 252],
[231, 261],
[232, 233],
[232, 234],
[232, 235],
[232, 236],
[232, 241],
[232, 250],
[232, 252],
[232, 261],
[233, 234],
[233, 235],
[233, 236],
[233, 237],
[233, 250],
[233, 261],
[234, 235],
[234, 249],
[234, 250],
[234, 261],
[235, 236],
[235, 237],
[235, 240],
[235, 241],
[235, 249],
[235, 250],
[235, 261],
[236, 237],
[236, 240],
[236, 246],
[236, 250],
[236, 261],
[236, 262],
[237, 240],
[237, 250],
[237, 252],
[237, 261],
[237, 262],
[237, 263],
[238, 239],
[238, 240],
[238, 241],
[238, 242],
[238, 243],
[238, 248],
[239, 240],
[239, 241],
[239, 242],
[239, 243],
[239, 244],
[239, 245],
[239, 246],
[239, 247],
[239, 248],
[239, 255],
[240, 243],
[240, 255],
[240, 261],
[240, 263],
[241, 242],
[241, 243],
[241, 244],
[241, 246],
[241, 247],
[241, 248],
[241, 255],
[241, 257],
[241, 258],
[241, 260],
[242, 243],
[242, 244],
[242, 245],
[242, 247],
[242, 248],
[242, 260],
[243, 245],
[243, 248],
[244, 248],
[244, 255],
[244, 257],
[244, 260],
[246, 247],
[246, 248],
[246, 255],
[246, 257],
[246, 258],
[246, 259],
[246, 260],
[246, 322],
[247, 248],
[247, 255],
[247, 257],
[247, 258],
[247, 259],
[247, 260],
[248, 255],
[248, 257],
[248, 258],
[248, 260],
[248, 276],
[248, 322],
[249, 250],
[249, 251],
[249, 252],
[250, 251],
[250, 252],
[250, 261],
[250, 263],
[251, 252],
[251, 254],
[252, 253],
[252, 254],
[253, 254],
[255, 256],
[255, 257],
[255, 258],
[255, 259],
[255, 260],
[256, 257],
[256, 258],
[256, 259],
[256, 260],
[256, 322],
[257, 258],
[257, 259],
[257, 260],
[257, 276],
[257, 322],
[258, 259],
[258, 260],
[258, 276],
[258, 322],
[259, 260],
[259, 276],
[261, 262],
[261, 263],
[262, 263],
[264, 265],
[264, 266],
[264, 269],
[264, 289],
[264, 291],
[264, 301],
[264, 302],
[264, 304],
[265, 266],
[265, 269],
[265, 289],
[265, 291],
[265, 307],
[265, 310],
[265, 312],
[265, 314],
[265, 317],
[265, 320],
[266, 270],
[266, 271],
[266, 272],
[266, 277],
[266, 278],
[266, 298],
[266, 299],
[266, 300],
[266, 301],
[266, 302],
[266, 303],
[266, 304],
[266, 305],
[266, 306],
[266, 307],
[266, 308],
[266, 309],
[266, 310],
[266, 311],
[266, 313],
[266, 314],
[267, 268],
[267, 269],
[267, 286],
[267, 288],
[267, 293],
[267, 315],
[267, 318],
[267, 320],
[268, 269],
[268, 288],
[268, 290],
[268, 315],
[268, 316],
[268, 319],
[268, 320],
[269, 278],
[269, 288],
[269, 289],
[269, 290],
[269, 291],
[269, 301],
[269, 303],
[269, 312],
[269, 315],
[269, 320],
[270, 300],
[270, 321],
[271, 272],
[271, 273],
[271, 274],
[271, 277],
[271, 289],
[271, 301],
[271, 303],
[271, 306],
[272, 273],
[272, 274],
[272, 275],
[272, 276],
[272, 277],
[272, 278],
[272, 279],
[272, 300],
[272, 301],
[272, 303],
[273, 274],
[274, 275],
[274, 276],
[274, 277],
[274, 278],
[274, 279],
[274, 301],
[275, 276],
[275, 277],
[275, 278],
[275, 279],
[275, 299],
[275, 300],
[275, 306],
[275, 309],
[275, 311],
[276, 300],
[276, 322],
[277, 278],
[277, 279],
[277, 289],
[277, 301],
[277, 302],
[277, 303],
[277, 304],
[277, 306],
[278, 279],
[278, 303],
[278, 306],
[280, 281],
[280, 282],
[280, 292],
[280, 294],
[281, 282],
[283, 284],
[283, 285],
[283, 321],
[284, 285],
[284, 321],
[285, 321],
[285, 322],
[286, 287],
[286, 288],
[287, 288],
[288, 315],
[288, 320],
[289, 290],
[289, 291],
[289, 304],
[289, 310],
[289, 312],
[289, 315],
[290, 291],
[290, 312],
[290, 315],
[291, 307],
[291, 310],
[291, 312],
[291, 313],
[291, 317],
[292, 293],
[292, 294],
[292, 319],
[292, 320],
[293, 294],
[294, 319],
[295, 296],
[295, 297],
[296, 297],
[298, 299],
[298, 300],
[298, 309],
[299, 300],
[299, 306],
[299, 308],
[299, 309],
[299, 310],
[299, 311],
[299, 314],
[300, 306],
[300, 309],
[300, 311],
[300, 314],
[301, 302],
[301, 303],
[301, 304],
[301, 306],
[302, 303],
[302, 304],
[302, 305],
[302, 306],
[302, 307],
[302, 309],
[302, 314],
[303, 306],
[303, 314],
[304, 305],
[304, 306],
[304, 307],
[305, 306],
[305, 307],
[305, 308],
[305, 309],
[305, 310],
[305, 311],
[305, 314],
[306, 307],
[306, 309],
[306, 310],
[306, 311],
[306, 314],
[307, 308],
[307, 309],
[307, 310],
[307, 312],
[307, 314],
[308, 309],
[308, 310],
[308, 311],
[308, 312],
[308, 314],
[309, 310],
[309, 311],
[309, 314],
[310, 311],
[310, 312],
[310, 313],
[310, 314],
[310, 317],
[311, 313],
[312, 313],
[312, 314],
[312, 317],
[313, 314],
[315, 316],
[315, 317],
[315, 320],
[316, 317],
[318, 319],
[318, 320],
[319, 320],
[321, 322],
];
original_rsis = [345, 346, 347, 63, 64, 65, 363, 252, 253, 254, 45, 46, 47, 75, 186, 187, 188, 390, 391, 423, 424, 425, 291, 292, 293, 78, 60, 61, 62, 324, 325, 326, 54, 55, 56, 33, 34, 35, 375, 376, 377, 432, 433, 434, 384, 385, 386, 51, 52, 53, 192, 193, 194, 496, 21, 22, 23, 417, 418, 419, 400, 66, 67, 68, 360, 361, 362, 240, 241, 242, 444, 445, 446, 327, 328, 329, 330, 331, 332, 333, 334, 335, 324, 325, 326, 336, 337, 338, 339, 340, 341, 264, 265, 266, 348, 349, 350, 357, 358, 359, 360, 361, 362, 180, 181, 182, 117, 118, 119, 156, 157, 158, 60, 61, 62, 111, 112, 113, 27, 28, 15, 42, 43, 44, 57, 58, 59, 276, 277, 278, 366, 367, 368, 285, 287, 444, 192, 193, 194, 18, 177, 178, 179, 114, 115, 116, 66, 67, 68, 423, 424, 425, 96, 97, 98, 99, 100, 101, 342, 343, 344, 150, 151, 152, 183, 184, 185, 417, 418, 419, 360, 36, 37, 38, 87, 435, 437, 297, 299, 204, 327, 328, 329, 321, 322, 323, 411, 412, 413, 291, 293, 39, 40, 41, 279, 281, 186, 187, 188, 405, 406, 407, 243, 244, 245, 294, 201, 198, 199, 200, 213, 215, 273, 300, 301, 302, 207, 165, 167, 51, 52, 53, 258, 259, 260, 480, 288, 289, 290, 465, 466, 467, 252, 253, 254, 303, 304, 305, 489, 490, 491, 264, 265, 266, 219, 282, 189, 190, 191, 69, 70, 71, 210, 211, 212, 216, 441, 443, 195, 196, 197, 402, 403, 404, 333, 334, 335, 30, 31, 32, 81, 48, 50, 49, 369, 370, 371, 312, 313, 314, 387, 388, 389, 69, 70, 71, 12, 13, 14, 339, 340, 341, 255, 256, 257, 354, 355, 348, 330, 331, 332, 351, 352, 353, 336, 337, 338, 348, 349, 350, 357, 359, 318, 319, 320, 495, 496, 497, 25, 26, 24, 438, 440];
